n=100;
m=100;
c=[241 272 201 243 212 289 230 281 273 242 267 300 292 274 204 271 260 215 254 293 290 274 215 262 210 281 296 263 280 243 213 201 255 296 244 262 258 226 240 281 242 286 252 288 298 277 220 260 281 290 291 230 274 227 223 289 218 258 256 216 239 228 247 282 297 236 220 204 236 264 260 231 271 257 224 252 217 258 247 250 284 298 207 216 277 295 254 203 206 285 231 251 263 228 201 260 229 250 231 290];
w=[289 199 215 163 104 201 279 128 202 229 164 150 181 141 296 162 217 252 265 232 177 162 188 273 122 123 198 255 192 108 249 242 120 195 229 252 253 236 223 130 243 233 239 221 228 143 142 107 275 202 300 170 234 289 286 130 288 214 202 177 250 132 197 145 284 211 246 281 205 237 115 242 128 109 137 295 163 108 121 188 149 147 167 279 256 223 142 298 221 115 251 143 163 300 232 109 286 207 178 243];
t=[
[0 -1 -1 -1 -1 358 -1 156 -1 -1 -1 -1 -1 -1 -1 -1 -1 -1 446 -1 -1 209 -1 -1 448 -1 473 -1 -1 -1 -1 -1 -1 -1 -1 -1 199 -1 -1 -1 -1 -1 139 -1 -1 -1 -1 -1 -1 163 323 171 135 458 -1 -1 -1 298 -1 -1 -1 -1 -1 -1 -1 345 -1 -1 -1 -1 -1 -1 -1 -1 -1 -1 -1 -1 -1 339 -1 -1 270 405 467 368 -1 -1 175 271 -1 203 -1 -1 -1 369 190 -1 291 227]
[-1 0 -1 -1 195 416 -1 -1 -1 153 -1 477 -1 -1 225 -1 419 253 -1 -1 -1 287 -1 171 -1 173 -1 -1 255 -1 -1 135 -1 -1 -1 493 -1 474 -1 -1 429 -1 138 -1 -1 -1 -1 -1 -1 -1 -1 -1 -1 -1 131 245 -1 420 -1 140 -1 -1 419 -1 -1 -1 -1 -1 -1 -1 -1 260 -1 -1 -1 -1 -1 -1 -1 -1 -1 379 -1 -1 -1 312 -1 -1 -1 -1 236 -1 -1 -1 -1 -1 -1 280 -1 -1]
[-1 -1 0 -1 -1 -1 -1 -1 -1 -1 -1 -1 -1 -1 -1 -1 -1 -1 226 -1 -1 -1 -1 -1 -1 -1 -1 -1 -1 -1 -1 -1 -1 -1 -1 -1 -1 -1 -1 -1 -1 -1 -1 -1 -1 -1 -1 -1 -1 101 -1 -1 -1 113 324 -1 -1 -1 -1 -1 -1 -1 -1 -1 -1 -1 483 -1 -1 -1 -1 -1 -1 -1 -1 -1 -1 156 454 267 -1 -1 -1 -1 -1 -1 -1 -1 -1 224 -1 -1 334 -1 -1 -1 170 -1 -1 -1]
[-1 -1 -1 0 -1 478 -1 -1 -1 -1 320 -1 -1 -1 -1 -1 -1 -1 245 -1 -1 -1 -1 -1 -1 -1 -1 -1 -1 500 -1 188 287 -1 -1 -1 -1 -1 -1 283 -1 -1 -1 -1 245 -1 -1 -1 -1 -1 -1 -1 141 -1 -1 234 255 -1 -1 -1 -1 -1 358 -1 -1 -1 -1 -1 325 -1 -1 -1 -1 -1 -1 -1 -1 -1 -1 -1 285 367 -1 -1 -1 -1 -1 -1 -1 -1 -1 -1 -1 -1 -1 232 -1 414 -1 -1]
[-1 195 -1 -1 0 -1 -1 -1 -1 386 -1 -1 359 -1 -1 -1 224 -1 492 -1 -1 369 -1 -1 133 -1 -1 -1 -1 -1 -1 482 -1 310 -1 -1 -1 123 -1 -1 -1 -1 -1 -1 -1 -1 -1 198 -1 -1 -1 497 -1 280 -1 -1 -1 -1 246 336 -1 310 -1 216 -1 -1 386 231 -1 -1 -1 -1 -1 -1 -1 -1 155 461 -1 -1 167 485 -1 -1 -1 -1 392 -1 -1 -1 -1 -1 417 -1 -1 -1 272 -1 -1 -1]
[358 416 -1 478 -1 0 -1 -1 -1 425 -1 -1 -1 -1 -1 -1 -1 -1 -1 486 -1 -1 -1 -1 -1 -1 -1 -1 -1 -1 -1 -1 -1 -1 -1 -1 226 -1 -1 -1 443 -1 -1 -1 -1 -1 -1 400 174 -1 -1 463 -1 -1 -1 421 -1 -1 270 -1 -1 -1 488 -1 -1 -1 -1 -1 -1 -1 253 -1 -1 -1 -1 -1 363 322 407 -1 -1 -1 -1 348 -1 -1 -1 -1 -1 -1 -1 -1 -1 -1 -1 -1 -1 -1 -1 -1]
[-1 -1 -1 -1 -1 -1 0 -1 -1 -1 434 -1 -1 -1 119 434 -1 -1 -1 -1 -1 -1 -1 -1 -1 -1 -1 -1 -1 -1 -1 -1 -1 -1 -1 -1 239 -1 -1 -1 -1 175 -1 -1 166 -1 300 -1 -1 -1 -1 -1 -1 -1 357 282 -1 388 -1 -1 -1 333 205 -1 -1 127 -1 -1 -1 363 -1 -1 -1 -1 -1 -1 -1 256 413 -1 -1 -1 -1 -1 -1 -1 -1 -1 -1 -1 -1 -1 -1 -1 -1 -1 -1 -1 -1 -1]
[156 -1 -1 -1 -1 -1 -1 0 -1 -1 -1 -1 -1 -1 -1 -1 -1 -1 261 -1 -1 301 -1 -1 180 -1 -1 -1 -1 -1 -1 -1 280 -1 -1 -1 -1 -1 -1 438 -1 -1 -1 -1 -1 -1 357 -1 429 -1 -1 -1 -1 -1 -1 -1 -1 167 -1 -1 -1 -1 -1 -1 -1 -1 -1 192 -1 -1 -1 -1 -1 -1 -1 -1 -1 463 -1 -1 -1 -1 -1 -1 -1 -1 -1 -1 -1 -1 -1 -1 447 -1 -1 -1 -1 -1 -1 -1]
[-1 -1 -1 -1 -1 -1 -1 -1 0 -1 -1 130 136 398 -1 -1 -1 -1 118 124 -1 -1 -1 -1 -1 -1 -1 -1 315 230 -1 466 -1 -1 439 -1 -1 -1 -1 -1 -1 -1 237 389 -1 -1 -1 -1 -1 293 -1 281 -1 428 -1 -1 150 -1 -1 -1 376 -1 -1 -1 -1 -1 -1 369 -1 -1 -1 106 372 -1 143 -1 381 -1 -1 -1 -1 -1 -1 -1 491 -1 -1 -1 -1 -1 -1 -1 -1 -1 -1 -1 -1 -1 -1 -1]
[-1 153 -1 -1 386 425 -1 -1 -1 0 -1 -1 -1 -1 -1 -1 338 -1 -1 -1 -1 -1 -1 435 193 -1 -1 -1 -1 -1 -1 -1 -1 193 -1 -1 227 -1 -1 -1 -1 -1 -1 -1 -1 -1 191 -1 -1 238 -1 -1 298 168 -1 -1 -1 150 387 -1 -1 -1 -1 -1 -1 -1 -1 -1 383 -1 -1 149 -1 -1 -1 196 196 -1 -1 393 -1 -1 -1 -1 -1 -1 334 -1 -1 -1 -1 -1 -1 258 -1 -1 -1 -1 -1 -1]
[-1 -1 -1 320 -1 -1 434 -1 -1 -1 0 -1 -1 -1 -1 -1 -1 -1 -1 -1 -1 -1 -1 -1 196 -1 -1 -1 167 -1 -1 -1 -1 287 407 -1 -1 -1 -1 -1 -1 -1 -1 249 -1 -1 -1 -1 -1 -1 -1 315 -1 -1 -1 -1 -1 -1 -1 -1 -1 417 118 -1 -1 -1 -1 500 -1 326 -1 -1 395 105 188 -1 -1 -1 -1 -1 -1 -1 -1 -1 470 -1 -1 -1 322 -1 -1 -1 -1 -1 -1 -1 249 308 -1 365]
[-1 477 -1 -1 -1 -1 -1 -1 130 -1 -1 0 -1 -1 421 378 -1 -1 407 -1 335 415 -1 -1 -1 -1 -1 -1 -1 365 -1 -1 -1 -1 -1 -1 305 -1 -1 -1 -1 -1 -1 -1 494 -1 -1 -1 -1 -1 -1 -1 162 -1 -1 352 -1 -1 -1 -1 -1 -1 -1 -1 -1 -1 -1 -1 -1 -1 -1 -1 185 -1 -1 -1 154 -1 -1 -1 -1 -1 -1 -1 129 130 387 -1 -1 -1 -1 -1 443 -1 -1 -1 442 -1 -1 421]
[-1 -1 -1 -1 359 -1 -1 -1 136 -1 -1 -1 0 233 -1 -1 122 -1 -1 -1 -1 -1 -1 -1 -1 -1 -1 177 -1 318 132 -1 221 -1 -1 -1 380 -1 -1 -1 496 429 -1 -1 -1 -1 -1 -1 -1 380 -1 -1 -1 -1 -1 -1 -1 -1 -1 -1 -1 -1 -1 -1 -1 -1 -1 -1 -1 -1 -1 -1 -1 -1 -1 -1 -1 309 -1 -1 -1 -1 -1 -1 -1 -1 -1 -1 -1 -1 -1 -1 -1 -1 -1 -1 -1 -1 -1 249]
[-1 -1 -1 -1 -1 -1 -1 -1 398 -1 -1 -1 233 0 -1 240 -1 -1 -1 -1 169 -1 -1 -1 -1 122 -1 -1 -1 -1 -1 -1 218 -1 -1 -1 -1 230 -1 278 -1 289 234 -1 -1 -1 -1 422 -1 -1 -1 483 -1 -1 -1 -1 -1 -1 -1 -1 -1 -1 256 -1 -1 -1 -1 -1 -1 -1 -1 -1 -1 -1 -1 -1 348 288 274 -1 -1 -1 -1 176 -1 295 -1 -1 -1 -1 -1 105 -1 327 -1 -1 -1 -1 355 -1]
[-1 225 -1 -1 -1 -1 119 -1 -1 -1 -1 421 -1 -1 0 -1 -1 -1 -1 495 -1 -1 336 -1 436 -1 435 -1 -1 161 -1 -1 451 -1 459 -1 -1 -1 460 -1 -1 -1 275 -1 488 -1 -1 430 -1 -1 -1 -1 -1 -1 -1 330 -1 -1 -1 203 -1 -1 -1 -1 -1 128 -1 -1 -1 -1 -1 -1 -1 -1 -1 -1 -1 -1 -1 -1 -1 -1 -1 -1 -1 -1 -1 264 -1 130 -1 -1 -1 -1 199 -1 -1 -1 -1 -1]
[-1 -1 -1 -1 -1 -1 434 -1 -1 -1 -1 378 -1 240 -1 0 -1 -1 -1 477 -1 -1 -1 -1 -1 -1 -1 -1 -1 191 -1 -1 101 -1 -1 -1 -1 168 -1 -1 -1 -1 -1 -1 166 -1 -1 214 -1 114 -1 358 454 192 -1 -1 144 -1 -1 -1 -1 -1 281 -1 -1 387 -1 427 458 -1 -1 -1 -1 -1 -1 -1 -1 -1 296 -1 -1 -1 -1 -1 -1 -1 -1 -1 -1 -1 -1 -1 -1 -1 356 -1 305 -1 -1 -1]
[-1 419 -1 -1 224 -1 -1 -1 -1 338 -1 -1 122 -1 -1 -1 0 -1 245 -1 -1 -1 -1 -1 -1 -1 376 -1 -1 -1 -1 -1 -1 -1 -1 203 -1 -1 357 -1 -1 -1 -1 -1 -1 -1 -1 333 -1 -1 -1 157 352 168 -1 -1 -1 -1 467 -1 -1 -1 -1 -1 -1 176 -1 -1 -1 -1 -1 -1 -1 -1 -1 153 -1 -1 384 -1 -1 -1 -1 -1 -1 -1 -1 -1 -1 -1 -1 -1 245 -1 177 -1 -1 -1 -1 -1]
[-1 253 -1 -1 -1 -1 -1 -1 -1 -1 -1 -1 -1 -1 -1 -1 -1 0 -1 -1 -1 -1 -1 -1 -1 -1 -1 -1 -1 -1 -1 171 -1 -1 -1 -1 -1 -1 -1 -1 -1 441 -1 -1 -1 -1 -1 368 -1 -1 -1 -1 239 -1 -1 195 -1 -1 -1 432 -1 495 -1 105 -1 -1 302 321 230 303 -1 -1 -1 -1 -1 -1 -1 -1 -1 -1 -1 -1 -1 -1 -1 -1 -1 -1 -1 -1 196 473 -1 497 -1 430 -1 -1 -1 -1]
[446 -1 226 245 492 -1 -1 261 118 -1 -1 407 -1 -1 -1 -1 245 -1 0 -1 -1 310 -1 -1 -1 -1 -1 244 -1 -1 -1 -1 -1 -1 -1 -1 -1 243 -1 309 -1 -1 -1 -1 -1 -1 -1 -1 -1 -1 -1 -1 -1 -1 -1 302 143 -1 401 -1 -1 274 420 -1 -1 -1 -1 -1 314 -1 -1 496 -1 323 -1 -1 -1 -1 -1 239 -1 -1 -1 -1 -1 -1 -1 -1 -1 -1 -1 -1 -1 -1 -1 -1 -1 -1 -1 -1]
[-1 -1 -1 -1 -1 486 -1 -1 124 -1 -1 -1 -1 -1 495 477 -1 -1 -1 0 -1 293 -1 112 -1 -1 489 -1 173 140 -1 -1 -1 -1 178 -1 397 -1 -1 368 -1 -1 -1 -1 -1 -1 -1 -1 -1 -1 340 -1 -1 -1 -1 -1 -1 410 -1 -1 -1 -1 -1 442 -1 -1 -1 -1 -1 -1 132 -1 343 -1 -1 -1 326 -1 -1 -1 -1 133 -1 -1 456 -1 472 -1 -1 -1 -1 -1 -1 -1 -1 -1 -1 -1 -1 229]
[-1 -1 -1 -1 -1 -1 -1 -1 -1 -1 -1 335 -1 169 -1 -1 -1 -1 -1 -1 0 -1 -1 -1 -1 -1 -1 -1 -1 467 399 -1 -1 -1 -1 -1 -1 375 -1 -1 384 -1 -1 -1 -1 -1 -1 -1 373 185 -1 298 -1 -1 -1 -1 -1 -1 495 -1 -1 -1 -1 -1 -1 -1 -1 332 -1 -1 -1 442 -1 -1 -1 -1 -1 -1 -1 -1 -1 -1 -1 -1 -1 -1 -1 279 -1 -1 -1 -1 -1 -1 -1 -1 -1 218 286 283]
[209 287 -1 -1 369 -1 -1 301 -1 -1 -1 415 -1 -1 -1 -1 -1 -1 310 293 -1 0 -1 -1 -1 -1 -1 267 229 125 376 388 -1 114 -1 -1 -1 -1 334 -1 -1 -1 -1 -1 -1 -1 151 -1 442 -1 -1 -1 430 251 -1 143 -1 -1 -1 266 -1 439 117 -1 -1 -1 -1 -1 -1 -1 -1 -1 -1 -1 -1 -1 -1 -1 478 -1 405 -1 -1 -1 191 -1 258 -1 -1 -1 -1 -1 -1 -1 448 -1 -1 -1 441 -1]
[-1 -1 -1 -1 -1 -1 -1 -1 -1 -1 -1 -1 -1 -1 336 -1 -1 -1 -1 -1 -1 -1 0 -1 -1 -1 -1 -1 -1 284 -1 -1 -1 -1 -1 -1 -1 -1 -1 -1 -1 -1 -1 -1 -1 -1 -1 -1 -1 480 -1 415 -1 -1 -1 -1 -1 115 -1 -1 -1 -1 -1 -1 -1 174 -1 -1 -1 371 -1 -1 -1 -1 -1 299 406 -1 -1 -1 -1 345 -1 -1 -1 458 -1 200 484 -1 -1 -1 -1 -1 -1 -1 -1 -1 331 -1]
[-1 171 -1 -1 -1 -1 -1 -1 -1 435 -1 -1 -1 -1 -1 -1 -1 -1 -1 112 -1 -1 -1 0 -1 -1 236 -1 156 -1 307 -1 -1 -1 -1 -1 -1 -1 -1 -1 -1 -1 -1 -1 477 -1 -1 -1 -1 -1 -1 421 -1 -1 254 -1 -1 -1 -1 -1 -1 -1 199 -1 -1 -1 -1 -1 -1 -1 -1 -1 -1 -1 -1 -1 -1 -1 -1 -1 -1 432 -1 -1 255 376 -1 -1 -1 343 131 -1 -1 268 -1 -1 -1 -1 -1 -1]
[448 -1 -1 -1 133 -1 -1 180 -1 193 196 -1 -1 -1 436 -1 -1 -1 -1 -1 -1 -1 -1 -1 0 -1 -1 -1 -1 417 -1 -1 -1 -1 -1 -1 256 -1 -1 -1 -1 -1 -1 -1 -1 -1 147 -1 -1 -1 -1 -1 -1 -1 -1 -1 -1 -1 -1 -1 -1 -1 -1 258 351 -1 -1 -1 193 -1 414 -1 -1 -1 472 -1 -1 -1 -1 -1 -1 -1 -1 -1 -1 -1 128 -1 -1 -1 404 -1 -1 -1 -1 -1 -1 -1 306 -1]
[-1 173 -1 -1 -1 -1 -1 -1 -1 -1 -1 -1 -1 122 -1 -1 -1 -1 -1 -1 -1 -1 -1 -1 -1 0 -1 -1 -1 208 281 -1 -1 255 -1 357 -1 -1 -1 365 -1 -1 -1 -1 -1 -1 414 -1 295 289 -1 389 -1 -1 -1 -1 -1 -1 -1 -1 -1 -1 -1 -1 -1 -1 -1 -1 396 -1 337 -1 -1 -1 478 -1 133 140 -1 -1 -1 387 298 -1 -1 -1 -1 -1 306 -1 -1 -1 139 367 -1 -1 -1 294 -1 -1]
[473 -1 -1 -1 -1 -1 -1 -1 -1 -1 -1 -1 -1 -1 435 -1 376 -1 -1 489 -1 -1 -1 236 -1 -1 0 -1 -1 -1 -1 -1 -1 -1 -1 -1 -1 -1 461 -1 -1 -1 356 -1 -1 120 -1 -1 -1 -1 325 -1 -1 -1 276 -1 381 -1 -1 -1 -1 -1 -1 -1 -1 -1 356 237 -1 -1 348 -1 -1 -1 -1 -1 -1 493 -1 -1 -1 -1 -1 -1 -1 453 466 -1 -1 -1 -1 -1 391 -1 -1 -1 -1 -1 -1 410]
[-1 -1 -1 -1 -1 -1 -1 -1 -1 -1 -1 -1 177 -1 -1 -1 -1 -1 244 -1 -1 267 -1 -1 -1 -1 -1 0 -1 -1 -1 358 -1 -1 -1 -1 -1 345 -1 -1 -1 -1 -1 -1 233 -1 -1 -1 -1 -1 -1 112 -1 -1 -1 -1 -1 -1 473 294 -1 -1 -1 433 -1 -1 -1 -1 -1 182 130 -1 -1 447 -1 -1 -1 -1 -1 -1 -1 -1 -1 -1 -1 -1 -1 -1 -1 386 -1 -1 -1 -1 -1 119 -1 -1 -1 -1]
[-1 255 -1 -1 -1 -1 -1 -1 315 -1 167 -1 -1 -1 -1 -1 -1 -1 -1 173 -1 229 -1 156 -1 -1 -1 -1 0 -1 -1 -1 -1 -1 -1 -1 -1 -1 145 -1 -1 -1 -1 -1 -1 -1 -1 -1 -1 -1 -1 -1 340 -1 -1 -1 -1 -1 -1 -1 -1 -1 238 -1 -1 -1 -1 -1 -1 262 -1 363 -1 -1 -1 -1 127 379 -1 -1 -1 -1 245 -1 317 -1 -1 468 453 -1 -1 -1 -1 -1 -1 213 -1 -1 308 -1]
[-1 -1 -1 500 -1 -1 -1 -1 230 -1 -1 365 318 -1 161 191 -1 -1 -1 140 467 125 284 -1 417 208 -1 -1 -1 0 -1 197 -1 -1 331 -1 -1 -1 -1 -1 391 -1 -1 -1 -1 -1 -1 -1 -1 -1 -1 -1 -1 -1 -1 -1 -1 -1 -1 -1 -1 -1 154 -1 -1 -1 -1 -1 -1 -1 -1 -1 -1 -1 478 -1 -1 -1 -1 152 -1 -1 -1 -1 140 255 -1 -1 -1 -1 496 -1 426 -1 -1 -1 -1 393 -1 -1]
[-1 -1 -1 -1 -1 -1 -1 -1 -1 -1 -1 -1 132 -1 -1 -1 -1 -1 -1 -1 399 376 -1 307 -1 281 -1 -1 -1 -1 0 -1 459 -1 -1 -1 -1 -1 488 -1 400 -1 243 -1 -1 289 -1 196 -1 258 119 -1 -1 -1 -1 -1 -1 -1 -1 -1 -1 -1 -1 -1 -1 -1 -1 -1 -1 308 -1 -1 -1 -1 -1 193 -1 -1 421 494 -1 -1 -1 -1 148 388 -1 -1 -1 -1 -1 -1 -1 -1 -1 -1 -1 -1 -1 -1]
[-1 135 -1 188 482 -1 -1 -1 466 -1 -1 -1 -1 -1 -1 -1 -1 171 -1 -1 -1 388 -1 -1 -1 -1 -1 358 -1 197 -1 0 -1 188 323 -1 -1 -1 298 -1 -1 -1 -1 -1 -1 -1 -1 275 -1 -1 -1 174 -1 -1 -1 -1 -1 -1 -1 -1 -1 113 -1 -1 -1 -1 394 -1 -1 -1 -1 -1 319 241 -1 -1 177 -1 -1 234 -1 -1 -1 -1 -1 -1 -1 -1 -1 -1 -1 331 -1 382 -1 -1 -1 149 -1 -1]
[-1 -1 -1 287 -1 -1 -1 280 -1 -1 -1 -1 221 218 451 101 -1 -1 -1 -1 -1 -1 -1 -1 -1 -1 -1 -1 -1 -1 459 -1 0 -1 -1 -1 -1 -1 -1 110 -1 -1 -1 -1 -1 -1 -1 483 -1 -1 -1 -1 457 -1 -1 118 -1 129 -1 -1 -1 -1 272 -1 -1 -1 -1 -1 -1 -1 -1 -1 -1 -1 -1 -1 -1 -1 -1 -1 -1 -1 -1 -1 -1 -1 229 -1 445 -1 -1 -1 -1 -1 -1 255 -1 464 -1 247]
[-1 -1 -1 -1 310 -1 -1 -1 -1 193 287 -1 -1 -1 -1 -1 -1 -1 -1 -1 -1 114 -1 -1 -1 255 -1 -1 -1 -1 -1 188 -1 0 -1 -1 100 -1 287 -1 -1 175 -1 -1 -1 -1 -1 -1 -1 -1 381 -1 421 -1 -1 -1 -1 -1 -1 -1 -1 272 -1 -1 -1 -1 -1 -1 -1 270 -1 -1 -1 200 -1 353 116 -1 -1 -1 -1 282 -1 -1 -1 -1 -1 -1 -1 -1 401 -1 -1 -1 -1 -1 403 -1 -1 467]
[-1 -1 -1 -1 -1 -1 -1 -1 439 -1 407 -1 -1 -1 459 -1 -1 -1 -1 178 -1 -1 -1 -1 -1 -1 -1 -1 -1 331 -1 323 -1 -1 0 173 139 281 -1 -1 -1 -1 -1 -1 -1 330 -1 -1 -1 109 -1 240 -1 -1 -1 -1 352 381 -1 -1 393 -1 -1 -1 -1 368 -1 -1 -1 -1 -1 -1 -1 -1 -1 -1 -1 -1 -1 -1 -1 199 271 -1 297 -1 -1 -1 235 -1 427 -1 266 -1 -1 -1 -1 -1 460 -1]
[-1 493 -1 -1 -1 -1 -1 -1 -1 -1 -1 -1 -1 -1 -1 -1 203 -1 -1 -1 -1 -1 -1 -1 -1 357 -1 -1 -1 -1 -1 -1 -1 -1 173 0 -1 -1 -1 -1 -1 -1 -1 -1 -1 -1 349 -1 -1 -1 -1 -1 -1 275 -1 -1 -1 202 -1 -1 -1 -1 -1 -1 390 -1 -1 409 -1 -1 -1 -1 -1 492 -1 -1 -1 222 -1 409 -1 -1 -1 -1 -1 -1 -1 -1 -1 275 -1 441 -1 -1 -1 -1 -1 -1 -1 -1]
[199 -1 -1 -1 -1 226 239 -1 -1 227 -1 305 380 -1 -1 -1 -1 -1 -1 397 -1 -1 -1 -1 256 -1 -1 -1 -1 -1 -1 -1 -1 100 139 -1 0 -1 -1 -1 -1 454 -1 -1 -1 176 -1 -1 327 -1 -1 -1 -1 260 -1 -1 -1 178 -1 -1 265 -1 -1 -1 -1 -1 -1 264 -1 476 100 -1 231 302 -1 222 475 -1 -1 193 442 269 -1 -1 -1 -1 -1 -1 -1 -1 -1 -1 -1 -1 -1 -1 -1 -1 -1 -1]
[-1 474 -1 -1 123 -1 -1 -1 -1 -1 -1 -1 -1 230 -1 168 -1 -1 243 -1 375 -1 -1 -1 -1 -1 -1 345 -1 -1 -1 -1 -1 -1 281 -1 -1 0 -1 -1 -1 341 -1 -1 -1 -1 -1 -1 -1 -1 -1 -1 -1 -1 -1 -1 -1 -1 -1 -1 301 -1 -1 304 -1 -1 -1 -1 -1 -1 -1 -1 -1 428 -1 434 -1 141 -1 -1 -1 -1 -1 340 -1 -1 -1 -1 -1 -1 -1 -1 -1 -1 -1 -1 -1 -1 110 -1]
[-1 -1 -1 -1 -1 -1 -1 -1 -1 -1 -1 -1 -1 -1 460 -1 357 -1 -1 -1 -1 334 -1 -1 -1 -1 461 -1 145 -1 488 298 -1 287 -1 -1 -1 -1 0 -1 -1 -1 -1 -1 132 -1 400 -1 -1 -1 490 298 -1 -1 -1 -1 -1 335 -1 403 -1 -1 -1 -1 482 -1 -1 338 -1 -1 -1 -1 -1 -1 299 -1 252 -1 -1 -1 403 -1 415 -1 -1 -1 -1 -1 -1 181 395 -1 -1 -1 -1 -1 -1 -1 -1 -1]
[-1 -1 -1 283 -1 -1 -1 438 -1 -1 -1 -1 -1 278 -1 -1 -1 -1 309 368 -1 -1 -1 -1 -1 365 -1 -1 -1 -1 -1 -1 110 -1 -1 -1 -1 -1 -1 0 -1 -1 321 -1 -1 -1 -1 -1 -1 -1 -1 -1 490 -1 -1 -1 -1 -1 -1 -1 173 -1 -1 -1 -1 307 -1 -1 367 -1 -1 222 -1 -1 182 -1 451 296 -1 -1 -1 -1 215 394 491 -1 -1 369 -1 -1 -1 -1 -1 -1 -1 -1 -1 -1 -1 -1]
[-1 429 -1 -1 -1 443 -1 -1 -1 -1 -1 -1 496 -1 -1 -1 -1 -1 -1 -1 384 -1 -1 -1 -1 -1 -1 -1 -1 391 400 -1 -1 -1 -1 -1 -1 -1 -1 -1 0 -1 -1 -1 -1 -1 -1 -1 -1 308 -1 151 201 -1 -1 -1 -1 -1 193 -1 -1 322 -1 -1 -1 -1 325 -1 128 -1 -1 153 -1 -1 -1 -1 405 -1 -1 -1 -1 -1 -1 -1 -1 -1 -1 -1 121 -1 -1 349 -1 -1 -1 -1 -1 -1 -1 219]
[-1 -1 -1 -1 -1 -1 175 -1 -1 -1 -1 -1 429 289 -1 -1 -1 441 -1 -1 -1 -1 -1 -1 -1 -1 -1 -1 -1 -1 -1 -1 -1 175 -1 -1 454 341 -1 -1 -1 0 -1 -1 -1 -1 -1 -1 -1 189 -1 -1 304 291 -1 -1 -1 473 -1 -1 396 335 -1 -1 -1 -1 -1 260 -1 -1 -1 -1 -1 -1 -1 -1 -1 -1 -1 -1 -1 490 -1 -1 -1 392 -1 -1 -1 -1 -1 -1 -1 -1 -1 -1 -1 -1 -1 151]
[139 138 -1 -1 -1 -1 -1 -1 237 -1 -1 -1 -1 234 275 -1 -1 -1 -1 -1 -1 -1 -1 -1 -1 -1 356 -1 -1 -1 243 -1 -1 -1 -1 -1 -1 -1 -1 321 -1 -1 0 -1 -1 388 -1 -1 -1 -1 -1 -1 -1 -1 -1 -1 -1 342 410 -1 104 -1 -1 -1 -1 -1 324 -1 193 -1 -1 -1 -1 133 298 -1 -1 -1 252 -1 -1 -1 -1 260 -1 -1 -1 -1 -1 -1 -1 -1 229 479 -1 -1 -1 -1 -1 -1]
[-1 -1 -1 -1 -1 -1 -1 -1 389 -1 249 -1 -1 -1 -1 -1 -1 -1 -1 -1 -1 -1 -1 -1 -1 -1 -1 -1 -1 -1 -1 -1 -1 -1 -1 -1 -1 -1 -1 -1 -1 -1 -1 0 -1 -1 -1 -1 -1 190 -1 240 -1 -1 -1 -1 -1 -1 -1 -1 -1 -1 496 -1 -1 -1 -1 -1 -1 -1 -1 -1 -1 -1 -1 468 -1 -1 -1 -1 -1 -1 -1 -1 380 -1 198 -1 -1 -1 -1 -1 257 407 -1 -1 -1 -1 -1 -1]
[-1 -1 -1 245 -1 -1 166 -1 -1 -1 -1 494 -1 -1 488 166 -1 -1 -1 -1 -1 -1 -1 477 -1 -1 -1 233 -1 -1 -1 -1 -1 -1 -1 -1 -1 -1 132 -1 -1 -1 -1 -1 0 211 168 -1 -1 -1 -1 -1 -1 191 -1 -1 -1 288 126 -1 -1 -1 -1 -1 -1 -1 -1 -1 -1 -1 116 -1 222 -1 -1 -1 -1 264 408 -1 -1 -1 -1 450 -1 -1 -1 -1 128 -1 -1 272 -1 -1 266 -1 -1 -1 -1 264]
[-1 -1 -1 -1 -1 -1 -1 -1 -1 -1 -1 -1 -1 -1 -1 -1 -1 -1 -1 -1 -1 -1 -1 -1 -1 -1 120 -1 -1 -1 289 -1 -1 -1 330 -1 176 -1 -1 -1 -1 -1 388 -1 211 0 -1 -1 -1 -1 274 -1 -1 -1 -1 -1 -1 -1 -1 -1 209 -1 -1 196 253 -1 175 -1 202 -1 -1 -1 -1 -1 197 417 -1 -1 -1 144 494 -1 -1 248 -1 -1 -1 -1 -1 -1 -1 -1 338 -1 254 206 -1 -1 -1 477]
[-1 -1 -1 -1 -1 -1 300 357 -1 191 -1 -1 -1 -1 -1 -1 -1 -1 -1 -1 -1 151 -1 -1 147 414 -1 -1 -1 -1 -1 -1 -1 -1 -1 349 -1 -1 400 -1 -1 -1 -1 -1 168 -1 0 -1 -1 -1 -1 -1 227 -1 -1 -1 137 -1 -1 -1 -1 -1 -1 -1 -1 -1 -1 -1 -1 179 -1 -1 -1 258 -1 -1 -1 -1 285 -1 447 273 -1 478 -1 -1 -1 -1 -1 291 -1 421 -1 -1 -1 -1 -1 -1 326 -1]
[-1 -1 -1 -1 198 400 -1 -1 -1 -1 -1 -1 -1 422 430 214 333 368 -1 -1 -1 -1 -1 -1 -1 -1 -1 -1 -1 -1 196 275 483 -1 -1 -1 -1 -1 -1 -1 -1 -1 -1 -1 -1 -1 -1 0 -1 236 -1 -1 175 -1 -1 -1 -1 -1 -1 -1 259 -1 -1 -1 163 -1 -1 -1 204 -1 -1 197 -1 -1 -1 296 -1 -1 -1 -1 181 -1 -1 290 -1 -1 -1 324 -1 -1 -1 460 228 -1 473 -1 -1 -1 -1 137]
[-1 -1 -1 -1 -1 174 -1 429 -1 -1 -1 -1 -1 -1 -1 -1 -1 -1 -1 -1 373 442 -1 -1 -1 295 -1 -1 -1 -1 -1 -1 -1 -1 -1 -1 327 -1 -1 -1 -1 -1 -1 -1 -1 -1 -1 -1 0 -1 -1 -1 -1 -1 -1 476 -1 -1 -1 -1 482 -1 -1 -1 -1 -1 -1 -1 -1 -1 -1 -1 -1 -1 239 471 -1 343 327 -1 -1 -1 -1 159 -1 -1 -1 -1 -1 297 -1 -1 -1 -1 154 -1 -1 -1 -1 -1]
[163 -1 101 -1 -1 -1 -1 -1 293 238 -1 -1 380 -1 -1 114 -1 -1 -1 -1 185 -1 480 -1 -1 289 -1 -1 -1 -1 258 -1 -1 -1 109 -1 -1 -1 -1 -1 308 189 -1 190 -1 -1 -1 236 -1 0 -1 -1 -1 -1 188 -1 321 -1 -1 -1 -1 -1 -1 -1 -1 245 -1 391 -1 300 -1 337 500 -1 -1 -1 138 260 -1 -1 -1 -1 222 -1 -1 -1 -1 364 -1 -1 -1 -1 -1 -1 -1 -1 -1 -1 -1 -1]
[323 -1 -1 -1 -1 -1 -1 -1 -1 -1 -1 -1 -1 -1 -1 -1 -1 -1 -1 340 -1 -1 -1 -1 -1 -1 325 -1 -1 -1 119 -1 -1 381 -1 -1 -1 -1 490 -1 -1 -1 -1 -1 -1 274 -1 -1 -1 -1 0 320 -1 -1 356 -1 473 -1 -1 -1 -1 -1 -1 -1 -1 250 -1 -1 361 -1 -1 -1 -1 -1 -1 -1 -1 -1 -1 183 486 -1 -1 -1 -1 -1 417 -1 216 -1 -1 318 -1 157 -1 -1 -1 -1 -1 -1]
[171 -1 -1 -1 497 463 -1 -1 281 -1 315 -1 -1 483 -1 358 157 -1 -1 -1 298 -1 415 421 -1 389 -1 112 -1 -1 -1 174 -1 -1 240 -1 -1 -1 298 -1 151 -1 -1 240 -1 -1 -1 -1 -1 -1 320 0 -1 263 -1 -1 -1 -1 110 346 -1 -1 211 -1 -1 -1 -1 -1 -1 -1 -1 -1 -1 -1 -1 275 -1 -1 -1 207 -1 -1 -1 -1 340 -1 -1 -1 -1 -1 -1 -1 123 -1 256 493 -1 -1 -1 -1]
[135 -1 -1 141 -1 -1 -1 -1 -1 298 -1 162 -1 -1 -1 454 352 239 -1 -1 -1 430 -1 -1 -1 -1 -1 -1 340 -1 -1 -1 457 421 -1 -1 -1 -1 -1 490 201 304 -1 -1 -1 -1 227 175 -1 -1 -1 -1 0 -1 -1 304 -1 -1 147 -1 -1 -1 464 -1 -1 -1 -1 -1 -1 312 -1 -1 -1 -1 -1 335 -1 -1 -1 -1 153 -1 -1 -1 -1 -1 163 -1 -1 -1 323 -1 -1 -1 -1 -1 -1 -1 357 -1]
[458 -1 113 -1 280 -1 -1 -1 428 168 -1 -1 -1 -1 -1 192 168 -1 -1 -1 -1 251 -1 -1 -1 -1 -1 -1 -1 -1 -1 -1 -1 -1 -1 275 260 -1 -1 -1 -1 291 -1 -1 191 -1 -1 -1 -1 -1 -1 263 -1 0 416 121 -1 437 -1 -1 -1 -1 362 -1 -1 -1 -1 -1 -1 -1 148 -1 459 -1 -1 405 -1 -1 -1 -1 -1 -1 -1 493 -1 494 -1 -1 -1 -1 -1 -1 -1 -1 -1 -1 -1 282 196 -1]
[-1 131 324 -1 -1 -1 357 -1 -1 -1 -1 -1 -1 -1 -1 -1 -1 -1 -1 -1 -1 -1 -1 254 -1 -1 276 -1 -1 -1 -1 -1 -1 -1 -1 -1 -1 -1 -1 -1 -1 -1 -1 -1 -1 -1 -1 -1 -1 188 356 -1 -1 416 0 -1 454 -1 -1 -1 440 -1 -1 -1 148 -1 -1 121 -1 456 -1 -1 -1 -1 -1 -1 -1 -1 -1 -1 -1 -1 -1 -1 -1 -1 -1 500 368 292 -1 -1 -1 -1 -1 -1 -1 -1 -1 -1]
[-1 245 -1 234 -1 421 282 -1 -1 -1 -1 352 -1 -1 330 -1 -1 195 302 -1 -1 143 -1 -1 -1 -1 -1 -1 -1 -1 -1 -1 118 -1 -1 -1 -1 -1 -1 -1 -1 -1 -1 -1 -1 -1 -1 -1 476 -1 -1 -1 304 121 -1 0 -1 357 -1 -1 190 -1 343 -1 -1 269 -1 -1 -1 435 343 -1 -1 -1 -1 -1 -1 291 -1 236 -1 -1 -1 -1 -1 -1 -1 -1 -1 -1 243 140 331 -1 335 -1 -1 -1 -1 -1]
[-1 -1 -1 255 -1 -1 -1 -1 150 -1 -1 -1 -1 -1 -1 144 -1 -1 143 -1 -1 -1 -1 -1 -1 -1 381 -1 -1 -1 -1 -1 -1 -1 352 -1 -1 -1 -1 -1 -1 -1 -1 -1 -1 -1 137 -1 -1 321 473 -1 -1 -1 454 -1 0 -1 -1 -1 -1 -1 -1 253 -1 -1 -1 -1 -1 -1 -1 -1 462 -1 -1 386 -1 -1 -1 -1 483 -1 -1 -1 -1 -1 -1 312 438 -1 207 133 -1 108 283 -1 -1 -1 -1 -1]
[298 420 -1 -1 -1 -1 388 167 -1 150 -1 -1 -1 -1 -1 -1 -1 -1 -1 410 -1 -1 115 -1 -1 -1 -1 -1 -1 -1 -1 -1 129 -1 381 202 178 -1 335 -1 -1 473 342 -1 288 -1 -1 -1 -1 -1 -1 -1 -1 437 -1 357 -1 0 -1 -1 -1 -1 -1 -1 -1 -1 -1 -1 -1 -1 -1 361 -1 -1 -1 -1 -1 -1 228 -1 -1 -1 -1 -1 -1 -1 -1 -1 397 145 304 434 294 -1 -1 -1 -1 -1 302 493]
[-1 -1 -1 -1 246 270 -1 -1 -1 387 -1 -1 -1 -1 -1 -1 467 -1 401 -1 495 -1 -1 -1 -1 -1 -1 473 -1 -1 -1 -1 -1 -1 -1 -1 -1 -1 -1 -1 193 -1 410 -1 126 -1 -1 -1 -1 -1 -1 110 147 -1 -1 -1 -1 -1 0 -1 288 -1 -1 -1 -1 -1 -1 -1 -1 -1 -1 273 -1 -1 239 -1 -1 286 -1 -1 -1 110 -1 163 -1 -1 440 -1 -1 -1 149 -1 -1 374 -1 183 -1 -1 -1 -1]
[-1 140 -1 -1 336 -1 -1 -1 -1 -1 -1 -1 -1 -1 203 -1 -1 432 -1 -1 -1 266 -1 -1 -1 -1 -1 294 -1 -1 -1 -1 -1 -1 -1 -1 -1 -1 403 -1 -1 -1 -1 -1 -1 -1 -1 -1 -1 -1 -1 346 -1 -1 -1 -1 -1 -1 -1 0 -1 -1 -1 -1 -1 -1 -1 -1 388 -1 -1 -1 -1 -1 194 -1 -1 -1 -1 385 -1 -1 -1 402 -1 -1 324 -1 -1 -1 374 -1 402 -1 -1 -1 -1 -1 -1 -1]
[-1 -1 -1 -1 -1 -1 -1 -1 376 -1 -1 -1 -1 -1 -1 -1 -1 -1 -1 -1 -1 -1 -1 -1 -1 -1 -1 -1 -1 -1 -1 -1 -1 -1 393 -1 265 301 -1 173 -1 396 104 -1 -1 209 -1 259 482 -1 -1 -1 -1 -1 440 190 -1 -1 288 -1 0 215 -1 -1 -1 -1 -1 -1 -1 -1 -1 404 -1 157 -1 -1 -1 -1 -1 -1 -1 -1 -1 431 -1 -1 419 339 -1 451 -1 -1 -1 -1 163 -1 306 -1 -1 -1]
[-1 -1 -1 -1 310 -1 333 -1 -1 -1 417 -1 -1 -1 -1 -1 -1 495 274 -1 -1 439 -1 -1 -1 -1 -1 -1 -1 -1 -1 113 -1 272 -1 -1 -1 -1 -1 -1 322 335 -1 -1 -1 -1 -1 -1 -1 -1 -1 -1 -1 -1 -1 -1 -1 -1 -1 -1 215 0 432 -1 257 -1 172 -1 435 308 -1 -1 -1 -1 -1 -1 417 -1 346 -1 -1 391 -1 -1 274 -1 -1 275 -1 -1 -1 414 -1 -1 -1 -1 -1 -1 -1 199]
[-1 419 -1 358 -1 488 205 -1 -1 -1 118 -1 -1 256 -1 281 -1 -1 420 -1 -1 117 -1 199 -1 -1 -1 -1 238 154 -1 -1 272 -1 -1 -1 -1 -1 -1 -1 -1 -1 -1 496 -1 -1 -1 -1 -1 -1 -1 211 464 362 -1 343 -1 -1 -1 -1 -1 432 0 229 -1 -1 -1 -1 -1 -1 -1 -1 -1 -1 207 -1 -1 -1 -1 -1 -1 -1 320 218 -1 -1 -1 204 -1 -1 -1 233 -1 -1 -1 -1 307 -1 -1 331]
[-1 -1 -1 -1 216 -1 -1 -1 -1 -1 -1 -1 -1 -1 -1 -1 -1 105 -1 442 -1 -1 -1 -1 258 -1 -1 433 -1 -1 -1 -1 -1 -1 -1 -1 -1 304 -1 -1 -1 -1 -1 -1 -1 196 -1 -1 -1 -1 -1 -1 -1 -1 -1 -1 253 -1 -1 -1 -1 -1 229 0 -1 -1 -1 -1 -1 -1 -1 -1 -1 -1 -1 -1 -1 -1 -1 -1 137 -1 -1 -1 407 -1 -1 -1 -1 -1 467 -1 -1 -1 -1 -1 -1 -1 -1 307]
[-1 -1 -1 -1 -1 -1 -1 -1 -1 -1 -1 -1 -1 -1 -1 -1 -1 -1 -1 -1 -1 -1 -1 -1 351 -1 -1 -1 -1 -1 -1 -1 -1 -1 -1 390 -1 -1 482 -1 -1 -1 -1 -1 -1 253 -1 163 -1 -1 -1 -1 -1 -1 148 -1 -1 -1 -1 -1 -1 257 -1 -1 0 215 -1 190 -1 -1 325 -1 125 -1 -1 -1 336 -1 -1 -1 -1 -1 -1 -1 -1 -1 224 -1 -1 -1 -1 -1 -1 215 -1 -1 -1 -1 -1 -1]
[345 -1 -1 -1 -1 -1 127 -1 -1 -1 -1 -1 -1 -1 128 387 176 -1 -1 -1 -1 -1 174 -1 -1 -1 -1 -1 -1 -1 -1 -1 -1 -1 368 -1 -1 -1 -1 307 -1 -1 -1 -1 -1 -1 -1 -1 -1 245 250 -1 -1 -1 -1 269 -1 -1 -1 -1 -1 -1 -1 -1 215 0 -1 -1 -1 -1 -1 -1 300 -1 332 -1 276 -1 -1 -1 327 -1 -1 463 462 212 -1 -1 155 -1 -1 -1 -1 -1 -1 -1 -1 -1 -1 323]
[-1 -1 483 -1 386 -1 -1 -1 -1 -1 -1 -1 -1 -1 -1 -1 -1 302 -1 -1 -1 -1 -1 -1 -1 -1 356 -1 -1 -1 -1 394 -1 -1 -1 -1 -1 -1 -1 -1 325 -1 324 -1 -1 175 -1 -1 -1 -1 -1 -1 -1 -1 -1 -1 -1 -1 -1 -1 -1 172 -1 -1 -1 -1 0 -1 -1 386 -1 -1 -1 -1 -1 -1 -1 455 -1 -1 403 -1 -1 -1 -1 230 307 -1 477 293 -1 -1 190 -1 -1 -1 -1 -1 -1 164]
[-1 -1 -1 -1 231 -1 -1 192 369 -1 500 -1 -1 -1 -1 427 -1 321 -1 -1 332 -1 -1 -1 -1 -1 237 -1 -1 -1 -1 -1 -1 -1 -1 409 264 -1 338 -1 -1 260 -1 -1 -1 -1 -1 -1 -1 391 -1 -1 -1 -1 121 -1 -1 -1 -1 -1 -1 -1 -1 -1 190 -1 -1 0 -1 134 -1 -1 -1 -1 -1 -1 -1 -1 -1 -1 -1 -1 303 -1 -1 -1 -1 149 129 -1 -1 -1 -1 -1 -1 -1 -1 -1 -1 -1]
[-1 -1 -1 325 -1 -1 -1 -1 -1 383 -1 -1 -1 -1 -1 458 -1 230 314 -1 -1 -1 -1 -1 193 396 -1 -1 -1 -1 -1 -1 -1 -1 -1 -1 -1 -1 -1 367 128 -1 193 -1 -1 202 -1 204 -1 -1 361 -1 -1 -1 -1 -1 -1 -1 -1 388 -1 435 -1 -1 -1 -1 -1 -1 0 -1 -1 -1 -1 -1 -1 -1 -1 -1 -1 -1 -1 -1 -1 304 -1 -1 -1 -1 -1 383 -1 -1 -1 -1 375 -1 262 -1 -1 -1]
[-1 -1 -1 -1 -1 -1 363 -1 -1 -1 326 -1 -1 -1 -1 -1 -1 303 -1 -1 -1 -1 371 -1 -1 -1 -1 182 262 -1 308 -1 -1 270 -1 -1 476 -1 -1 -1 -1 -1 -1 -1 -1 -1 179 -1 -1 300 -1 -1 312 -1 456 435 -1 -1 -1 -1 -1 308 -1 -1 -1 -1 386 134 -1 0 -1 394 -1 -1 -1 477 -1 -1 -1 345 -1 374 -1 -1 -1 -1 -1 -1 -1 -1 -1 -1 -1 485 -1 -1 -1 -1 -1 -1]
[-1 -1 -1 -1 -1 253 -1 -1 -1 -1 -1 -1 -1 -1 -1 -1 -1 -1 -1 132 -1 -1 -1 -1 414 337 348 130 -1 -1 -1 -1 -1 -1 -1 -1 100 -1 -1 -1 -1 -1 -1 -1 116 -1 -1 -1 -1 -1 -1 -1 -1 148 -1 343 -1 -1 -1 -1 -1 -1 -1 -1 325 -1 -1 -1 -1 -1 0 -1 -1 129 -1 -1 -1 -1 357 -1 445 -1 -1 164 -1 427 -1 -1 275 -1 -1 -1 -1 -1 -1 -1 -1 -1 -1 -1]
[-1 260 -1 -1 -1 -1 -1 -1 106 149 -1 -1 -1 -1 -1 -1 -1 -1 496 -1 442 -1 -1 -1 -1 -1 -1 -1 363 -1 -1 -1 -1 -1 -1 -1 -1 -1 -1 222 153 -1 -1 -1 -1 -1 -1 197 -1 337 -1 -1 -1 -1 -1 -1 -1 361 273 -1 404 -1 -1 -1 -1 -1 -1 -1 -1 394 -1 0 -1 -1 -1 -1 322 -1 358 -1 -1 -1 455 -1 -1 409 219 499 -1 -1 -1 -1 -1 -1 169 -1 -1 162 410 -1]
[-1 -1 -1 -1 -1 -1 -1 -1 372 -1 395 185 -1 -1 -1 -1 -1 -1 -1 343 -1 -1 -1 -1 -1 -1 -1 -1 -1 -1 -1 319 -1 -1 -1 -1 231 -1 -1 -1 -1 -1 -1 -1 222 -1 -1 -1 -1 500 -1 -1 -1 459 -1 -1 462 -1 -1 -1 -1 -1 -1 -1 125 300 -1 -1 -1 -1 -1 -1 0 -1 -1 -1 -1 -1 -1 -1 -1 -1 -1 -1 -1 -1 -1 -1 464 -1 -1 -1 -1 -1 114 -1 461 -1 397 -1]
[-1 -1 -1 -1 -1 -1 -1 -1 -1 -1 105 -1 -1 -1 -1 -1 -1 -1 323 -1 -1 -1 -1 -1 -1 -1 -1 447 -1 -1 -1 241 -1 200 -1 492 302 428 -1 -1 -1 -1 133 -1 -1 -1 258 -1 -1 -1 -1 -1 -1 -1 -1 -1 -1 -1 -1 -1 157 -1 -1 -1 -1 -1 -1 -1 -1 -1 129 -1 -1 0 -1 -1 -1 -1 211 332 -1 232 -1 418 -1 212 -1 -1 -1 -1 -1 -1 -1 -1 -1 -1 185 160 -1 -1]
[-1 -1 -1 -1 -1 -1 -1 -1 143 -1 188 -1 -1 -1 -1 -1 -1 -1 -1 -1 -1 -1 -1 -1 472 478 -1 -1 -1 478 -1 -1 -1 -1 -1 -1 -1 -1 299 182 -1 -1 298 -1 -1 197 -1 -1 239 -1 -1 -1 -1 -1 -1 -1 -1 -1 239 194 -1 -1 207 -1 -1 332 -1 -1 -1 -1 -1 -1 -1 -1 0 -1 -1 -1 303 -1 -1 -1 -1 -1 -1 -1 -1 -1 -1 -1 -1 -1 -1 -1 -1 -1 -1 486 -1 -1]
[-1 -1 -1 -1 -1 -1 -1 -1 -1 196 -1 -1 -1 -1 -1 -1 153 -1 -1 -1 -1 -1 299 -1 -1 -1 -1 -1 -1 -1 193 -1 -1 353 -1 -1 222 434 -1 -1 -1 -1 -1 468 -1 417 -1 296 471 -1 -1 275 335 405 -1 -1 386 -1 -1 -1 -1 -1 -1 -1 -1 -1 -1 -1 -1 477 -1 -1 -1 -1 -1 0 -1 -1 118 168 -1 -1 -1 -1 186 -1 -1 -1 -1 227 333 166 -1 -1 -1 199 -1 -1 -1 -1]
[-1 -1 -1 -1 155 363 -1 -1 381 196 -1 154 -1 348 -1 -1 -1 -1 -1 326 -1 -1 406 -1 -1 133 -1 -1 127 -1 -1 177 -1 116 -1 -1 475 -1 252 451 405 -1 -1 -1 -1 -1 -1 -1 -1 138 -1 -1 -1 -1 -1 -1 -1 -1 -1 -1 -1 417 -1 -1 336 276 -1 -1 -1 -1 -1 322 -1 -1 -1 -1 0 -1 383 -1 463 392 105 -1 -1 -1 -1 413 132 -1 -1 -1 -1 -1 -1 -1 -1 -1 -1 -1]
[-1 -1 156 -1 461 322 256 463 -1 -1 -1 -1 309 288 -1 -1 -1 -1 -1 -1 -1 -1 -1 -1 -1 140 493 -1 379 -1 -1 -1 -1 -1 -1 222 -1 141 -1 296 -1 -1 -1 -1 264 -1 -1 -1 343 260 -1 -1 -1 -1 -1 291 -1 -1 286 -1 -1 -1 -1 -1 -1 -1 455 -1 -1 -1 -1 -1 -1 -1 -1 -1 -1 0 -1 401 -1 -1 -1 -1 395 -1 -1 -1 -1 -1 -1 345 383 478 -1 -1 -1 -1 -1 365]
[-1 -1 454 -1 -1 407 413 -1 -1 -1 -1 -1 -1 274 -1 296 384 -1 -1 -1 -1 478 -1 -1 -1 -1 -1 -1 -1 -1 421 -1 -1 -1 -1 -1 -1 -1 -1 -1 -1 -1 252 -1 408 -1 285 -1 327 -1 -1 -1 -1 -1 -1 -1 -1 228 -1 -1 -1 346 -1 -1 -1 -1 -1 -1 -1 -1 357 358 -1 211 303 118 383 -1 0 -1 -1 -1 -1 -1 -1 -1 -1 -1 -1 321 -1 305 -1 -1 358 300 -1 -1 296 -1]
[339 -1 267 -1 -1 -1 -1 -1 -1 393 -1 -1 -1 -1 -1 -1 -1 -1 239 -1 -1 -1 -1 -1 -1 -1 -1 -1 -1 152 494 234 -1 -1 -1 409 193 -1 -1 -1 -1 -1 -1 -1 -1 144 -1 -1 -1 -1 183 207 -1 -1 -1 236 -1 -1 -1 385 -1 -1 -1 -1 -1 -1 -1 -1 -1 345 -1 -1 -1 332 -1 168 -1 401 -1 0 -1 -1 -1 -1 -1 -1 -1 -1 -1 -1 -1 -1 -1 -1 145 -1 231 -1 -1 -1]
[-1 -1 -1 285 167 -1 -1 -1 -1 -1 -1 -1 -1 -1 -1 -1 -1 -1 -1 -1 -1 405 -1 -1 -1 -1 -1 -1 -1 -1 -1 -1 -1 -1 -1 -1 442 -1 403 -1 -1 -1 -1 -1 -1 494 447 181 -1 -1 486 -1 153 -1 -1 -1 483 -1 -1 -1 -1 -1 -1 137 -1 327 403 -1 -1 -1 445 -1 -1 -1 -1 -1 463 -1 -1 -1 0 -1 -1 344 -1 -1 -1 -1 -1 -1 -1 -1 -1 -1 167 -1 -1 -1 466 -1]
[-1 379 -1 367 485 -1 -1 -1 -1 -1 -1 -1 -1 -1 -1 -1 -1 -1 -1 133 -1 -1 345 432 -1 387 -1 -1 -1 -1 -1 -1 -1 282 199 -1 269 -1 -1 -1 -1 490 -1 -1 -1 -1 273 -1 -1 -1 -1 -1 -1 -1 -1 -1 -1 -1 110 -1 -1 391 -1 -1 -1 -1 -1 -1 -1 374 -1 -1 -1 232 -1 -1 392 -1 -1 -1 -1 0 -1 367 -1 479 -1 -1 -1 -1 411 -1 -1 -1 293 -1 -1 -1 -1 -1]
[270 -1 -1 -1 -1 -1 -1 -1 -1 -1 -1 -1 -1 -1 -1 -1 -1 -1 -1 -1 -1 -1 -1 -1 -1 298 -1 -1 245 -1 -1 -1 -1 -1 271 -1 -1 -1 415 215 -1 -1 -1 -1 -1 -1 -1 -1 -1 222 -1 -1 -1 -1 -1 -1 -1 -1 -1 -1 -1 -1 320 -1 -1 -1 -1 303 -1 -1 -1 455 -1 -1 -1 -1 105 -1 -1 -1 -1 -1 0 321 -1 -1 260 -1 -1 -1 -1 218 -1 -1 -1 -1 -1 -1 -1 -1]
[405 -1 -1 -1 -1 348 -1 -1 -1 -1 -1 -1 -1 176 -1 -1 -1 -1 -1 -1 -1 -1 -1 -1 -1 -1 -1 -1 -1 -1 -1 -1 -1 -1 -1 -1 -1 340 -1 394 -1 -1 260 -1 450 248 478 290 159 -1 -1 -1 -1 493 -1 -1 -1 -1 163 402 431 -1 218 -1 -1 463 -1 -1 304 -1 164 -1 -1 418 -1 -1 -1 -1 -1 -1 344 367 321 0 -1 -1 -1 106 330 298 -1 364 -1 -1 -1 -1 -1 -1 -1 -1]
[467 -1 -1 -1 -1 -1 -1 -1 491 -1 470 129 -1 -1 -1 -1 -1 -1 -1 456 -1 191 -1 255 -1 -1 -1 -1 317 140 148 -1 -1 -1 297 -1 -1 -1 -1 491 -1 -1 -1 380 -1 -1 -1 -1 -1 -1 -1 340 -1 -1 -1 -1 -1 -1 -1 -1 -1 274 -1 407 -1 462 -1 -1 -1 -1 -1 -1 -1 -1 -1 186 -1 395 -1 -1 -1 -1 -1 -1 0 -1 -1 -1 267 -1 -1 -1 -1 -1 -1 -1 -1 439 -1 -1]
[368 312 -1 -1 -1 -1 -1 -1 -1 -1 -1 130 -1 295 -1 -1 -1 -1 -1 -1 -1 -1 458 376 -1 -1 453 -1 -1 255 388 -1 -1 -1 -1 -1 -1 -1 -1 -1 -1 392 -1 -1 -1 -1 -1 -1 -1 -1 -1 -1 -1 494 -1 -1 -1 -1 -1 -1 -1 -1 -1 -1 -1 212 230 -1 -1 -1 427 409 -1 212 -1 -1 -1 -1 -1 -1 -1 479 -1 -1 -1 0 454 -1 -1 -1 -1 -1 -1 271 -1 -1 -1 181 -1 -1]
[-1 -1 -1 -1 392 -1 -1 -1 -1 334 -1 387 -1 -1 -1 -1 -1 -1 -1 472 -1 258 -1 -1 128 -1 466 -1 -1 -1 -1 -1 229 -1 -1 -1 -1 -1 -1 -1 -1 -1 -1 198 -1 -1 -1 -1 -1 -1 417 -1 163 -1 -1 -1 -1 -1 440 324 419 -1 -1 -1 224 -1 307 -1 -1 -1 -1 219 -1 -1 -1 -1 -1 -1 -1 -1 -1 -1 260 -1 -1 454 0 -1 -1 202 -1 -1 -1 -1 -1 -1 -1 312 -1 -1]
[-1 -1 -1 -1 -1 -1 -1 -1 -1 -1 -1 -1 -1 -1 264 -1 -1 -1 -1 -1 279 -1 200 -1 -1 -1 -1 -1 468 -1 -1 -1 -1 -1 -1 -1 -1 -1 -1 369 -1 -1 -1 -1 -1 -1 -1 324 -1 364 -1 -1 -1 -1 500 -1 312 -1 -1 -1 339 275 204 -1 -1 -1 -1 149 -1 -1 -1 499 -1 -1 -1 -1 413 -1 -1 -1 -1 -1 -1 106 -1 -1 -1 0 -1 -1 -1 -1 -1 -1 -1 -1 -1 -1 -1 -1]
[175 -1 -1 -1 -1 -1 -1 -1 -1 -1 322 -1 -1 -1 -1 -1 -1 -1 -1 -1 -1 -1 484 -1 -1 306 -1 -1 453 -1 -1 -1 445 -1 235 -1 -1 -1 -1 -1 121 -1 -1 -1 128 -1 -1 -1 -1 -1 216 -1 -1 -1 368 -1 438 397 -1 -1 -1 -1 -1 -1 -1 155 477 129 -1 -1 275 -1 464 -1 -1 -1 132 -1 -1 -1 -1 -1 -1 330 267 -1 -1 -1 0 318 -1 -1 -1 452 -1 -1 136 -1 -1 -1]
[271 -1 224 -1 -1 -1 -1 -1 -1 -1 -1 -1 -1 -1 130 -1 -1 -1 -1 -1 -1 -1 -1 343 -1 -1 -1 386 -1 -1 -1 -1 -1 -1 -1 275 -1 -1 181 -1 -1 -1 -1 -1 -1 -1 291 -1 297 -1 -1 -1 -1 -1 292 -1 -1 145 -1 -1 451 -1 -1 -1 -1 -1 293 -1 383 -1 -1 -1 -1 -1 -1 227 -1 -1 321 -1 -1 -1 -1 298 -1 -1 202 -1 318 0 115 -1 387 -1 -1 -1 -1 -1 -1 -1]
[-1 236 -1 -1 -1 -1 -1 -1 -1 -1 -1 -1 -1 -1 -1 -1 -1 196 -1 -1 -1 -1 -1 131 404 -1 -1 -1 -1 496 -1 -1 -1 401 427 -1 -1 -1 395 -1 -1 -1 -1 -1 -1 -1 -1 -1 -1 -1 -1 -1 323 -1 -1 243 207 304 149 374 -1 -1 -1 467 -1 -1 -1 -1 -1 -1 -1 -1 -1 -1 -1 333 -1 -1 -1 -1 -1 411 -1 -1 -1 -1 -1 -1 -1 115 0 282 -1 -1 468 -1 -1 -1 135 -1]
[203 -1 -1 -1 -1 -1 -1 -1 -1 -1 -1 -1 -1 105 -1 -1 -1 473 -1 -1 -1 -1 -1 -1 -1 -1 -1 -1 -1 -1 -1 331 -1 -1 -1 441 -1 -1 -1 -1 349 -1 -1 -1 272 -1 421 460 -1 -1 318 -1 -1 -1 -1 140 133 434 -1 -1 -1 414 233 -1 -1 -1 -1 -1 -1 -1 -1 -1 -1 -1 -1 166 -1 345 305 -1 -1 -1 218 364 -1 -1 -1 -1 -1 -1 282 0 -1 -1 -1 -1 -1 -1 -1 412]
[-1 -1 334 -1 417 -1 -1 447 -1 -1 -1 443 -1 -1 -1 -1 245 -1 -1 -1 -1 -1 -1 -1 -1 139 391 -1 -1 426 -1 -1 -1 -1 266 -1 -1 -1 -1 -1 -1 -1 229 257 -1 338 -1 228 -1 -1 -1 123 -1 -1 -1 331 -1 294 -1 402 -1 -1 -1 -1 -1 -1 190 -1 -1 -1 -1 -1 -1 -1 -1 -1 -1 383 -1 -1 -1 -1 -1 -1 -1 -1 -1 -1 -1 387 -1 -1 0 -1 -1 366 -1 -1 -1 495]
[-1 -1 -1 -1 -1 -1 -1 -1 -1 258 -1 -1 -1 327 -1 -1 -1 497 -1 -1 -1 -1 -1 268 -1 367 -1 -1 -1 -1 -1 382 -1 -1 -1 -1 -1 -1 -1 -1 -1 -1 479 407 -1 -1 -1 -1 -1 -1 157 -1 -1 -1 -1 -1 108 -1 374 -1 -1 -1 -1 -1 215 -1 -1 -1 -1 485 -1 -1 -1 -1 -1 -1 -1 478 -1 -1 -1 -1 -1 -1 -1 271 -1 -1 452 -1 -1 -1 -1 0 -1 -1 -1 152 288 -1]
[-1 -1 -1 -1 -1 -1 -1 -1 -1 -1 -1 -1 -1 -1 199 356 177 -1 -1 -1 -1 448 -1 -1 -1 -1 -1 -1 -1 -1 -1 -1 -1 -1 -1 -1 -1 -1 -1 -1 -1 -1 -1 -1 266 254 -1 473 154 -1 -1 256 -1 -1 -1 335 283 -1 -1 -1 163 -1 -1 -1 -1 -1 -1 -1 375 -1 -1 169 114 -1 -1 -1 -1 -1 358 145 167 293 -1 -1 -1 -1 -1 -1 -1 -1 468 -1 -1 -1 0 -1 -1 360 -1 -1]
[369 -1 -1 232 -1 -1 -1 -1 -1 -1 -1 -1 -1 -1 -1 -1 -1 430 -1 -1 -1 -1 -1 -1 -1 -1 -1 119 213 -1 -1 -1 255 -1 -1 -1 -1 -1 -1 -1 -1 -1 -1 -1 -1 206 -1 -1 -1 -1 -1 493 -1 -1 -1 -1 -1 -1 183 -1 -1 -1 -1 -1 -1 -1 -1 -1 -1 -1 -1 -1 -1 -1 -1 199 -1 -1 300 -1 -1 -1 -1 -1 -1 -1 -1 -1 -1 -1 -1 -1 366 -1 -1 0 -1 294 -1 -1]
[190 -1 170 -1 272 -1 -1 -1 -1 -1 249 442 -1 -1 -1 305 -1 -1 -1 -1 -1 -1 -1 -1 -1 -1 -1 -1 -1 -1 -1 -1 -1 403 -1 -1 -1 -1 -1 -1 -1 -1 -1 -1 -1 -1 -1 -1 -1 -1 -1 -1 -1 -1 -1 -1 -1 -1 -1 -1 306 -1 307 -1 -1 -1 -1 -1 262 -1 -1 -1 461 185 -1 -1 -1 -1 -1 231 -1 -1 -1 -1 -1 -1 -1 -1 136 -1 -1 -1 -1 -1 -1 -1 0 -1 -1 -1]
[-1 280 -1 414 -1 -1 -1 -1 -1 -1 308 -1 -1 -1 -1 -1 -1 -1 -1 -1 218 -1 -1 -1 -1 294 -1 -1 -1 393 -1 149 464 -1 -1 -1 -1 -1 -1 -1 -1 -1 -1 -1 -1 -1 -1 -1 -1 -1 -1 -1 -1 282 -1 -1 -1 -1 -1 -1 -1 -1 -1 -1 -1 -1 -1 -1 -1 -1 -1 162 -1 160 486 -1 -1 -1 -1 -1 -1 -1 -1 -1 439 181 312 -1 -1 -1 -1 -1 -1 152 360 294 -1 0 -1 344]
[291 -1 -1 -1 -1 -1 -1 -1 -1 -1 -1 -1 -1 355 -1 -1 -1 -1 -1 -1 286 441 331 -1 306 -1 -1 -1 308 -1 -1 -1 -1 -1 460 -1 -1 110 -1 -1 -1 -1 -1 -1 -1 -1 326 -1 -1 -1 -1 -1 357 196 -1 -1 -1 302 -1 -1 -1 -1 -1 -1 -1 -1 -1 -1 -1 -1 -1 410 397 -1 -1 -1 -1 -1 296 -1 466 -1 -1 -1 -1 -1 -1 -1 -1 -1 135 -1 -1 288 -1 -1 -1 -1 0 392]
[227 -1 -1 -1 -1 -1 -1 -1 -1 -1 365 421 249 -1 -1 -1 -1 -1 -1 229 283 -1 -1 -1 -1 -1 410 -1 -1 -1 -1 -1 247 467 -1 -1 -1 -1 -1 -1 219 151 -1 -1 264 477 -1 137 -1 -1 -1 -1 -1 -1 -1 -1 -1 493 -1 -1 -1 199 331 307 -1 323 164 -1 -1 -1 -1 -1 -1 -1 -1 -1 -1 365 -1 -1 -1 -1 -1 -1 -1 -1 -1 -1 -1 -1 -1 412 495 -1 -1 -1 -1 344 392 0]
];
